(declare-const X String)
; /filename=[^\n]*\x2ef4a/i
(assert (not (str.in_re X (re.++ (str.to_re "/filename=") (re.* (re.comp (str.to_re "\u{a}"))) (str.to_re ".f4a/i\u{a}")))))
; /filename=[^\n]*\x2epmd/i
(assert (not (str.in_re X (re.++ (str.to_re "/filename=") (re.* (re.comp (str.to_re "\u{a}"))) (str.to_re ".pmd/i\u{a}")))))
; /filename=[^\n]*\x2ejnlp/i
(assert (str.in_re X (re.++ (str.to_re "/filename=") (re.* (re.comp (str.to_re "\u{a}"))) (str.to_re ".jnlp/i\u{a}"))))
(check-sat)

(exit)
